(set-logic ALL)
(declare-fun seed0_s () String)
(assert (and (or (and (and (and (and (and (and (and (and (and (and (and (and (and (and (and (and (and (and (and (and (and (and (and (and (and (not (= (ite (not (= (str.at seed0_s 2) (str.at seed0_s 5))) 1 0) 0)) (not (= (ite (not (= (str.at seed0_s 2) (str.at seed0_s 4))) 1 0) 0))) (not (= (ite (not (= (str.at seed0_s 2) (str.at seed0_s 3))) 1 0) 0))) (not (= (ite (not (= (str.at seed0_s 3) (str.at seed0_s 6))) 1 0) 0))) (not (= (ite (not (= (str.at seed0_s 3) (str.at seed0_s 5))) 1 0) 0))) (not (= (ite (not (= (str.at seed0_s 3) (str.at seed0_s 4))) 1 0) 0))) (not (= (ite (not (= (str.at seed0_s 4) (str.at seed0_s 6))) 1 0) 0))) (not (= (ite (not (= (str.at seed0_s 4) (str.at seed0_s 5))) 1 0) 0))) (not (= (ite (<= (str.len seed0_s) 7) 1 0) 0))) (not (= (ite (= (str.len seed0_s) 7) 1 0) 0))) (= (ite (not (= (str.at seed0_s 5) (str.at seed0_s 6))) 1 0) 0)) (not (= (ite (<= (str.len seed0_s) 7) 1 0) 0))) (not (= (ite (= (str.len seed0_s) 7) 1 0) 0))) (= (ite (<= (str.len seed0_s) 6) 1 0) 0)) (= (ite (= (str.len seed0_s) 6) 1 0) 0)) (= (ite (<= (str.len seed0_s) 5) 1 0) 0)) (= (ite (= (str.len seed0_s) 5) 1 0) 0)) (= (ite (<= (str.len seed0_s) 4) 1 0) 0)) (= (ite (= (str.len seed0_s) 4) 1 0) 0)) (= (ite (<= (str.len seed0_s) 3) 1 0) 0)) (= (ite (= (str.len seed0_s) 3) 1 0) 0)) (= (ite (<= (str.len seed0_s) 2) 1 0) 0)) (= (ite (= (str.len seed0_s) 2) 1 0) 0)) (= (ite (<= (str.len seed0_s) 1) 1 0) 0)) (= (ite (= (str.len seed0_s) 1) 1 0) 0)) (= (ite (<= (str.len seed0_s) 0) 1 0) 0)) (not (str.<= (str.++ seed0_s "QLuRFNf05") (str.++ seed0_s "")))) (or (= (ite (= (str.len seed0_s) 0) 1 0) 0) (xor (str.suffixof (str.++ seed0_s "P") (str.++ seed0_s "hipZxtqTY")) (str.suffixof (str.++ seed0_s "in") (str.++ seed0_s "l8vaOk"))))))
(check-sat)
(exit)